POSCAR file written by Ovito 3.15.2
1
33.1350237664 0.0 0.0
0.0 15.6192183282 0.0
0.0 0.0 10.9759516847
Sr Ti O 
96 96 288 
Direct
0.5 0.0 0.2452813041
0.3333333333 0.0 0.2452813041
0.1666666667 0.0 0.2452813041
0.0 0.0 0.2452813041
0.4166666667 0.0 0.4968542027
0.25 0.0 0.4968542027
0.0833333333 0.0 0.4968542027
0.5 0.0 0.7484271014
0.3333333333 0.0 0.7484271014
0.1666666667 0.0 0.7484271014
0.0 0.0 0.7484271014
0.4166666667 0.0 1.0
0.25 0.0 1.0
0.0833333333 0.0 1.0
0.5 0.2500125114 0.2452813041
0.3333333333 0.2500125114 0.2452813041
0.1666666667 0.2500125114 0.2452813041
0.0 0.2500125114 0.2452813041
0.4166666667 0.2500125114 0.4968542027
0.25 0.2500125114 0.4968542027
0.0833333333 0.2500125114 0.4968542027
0.5 0.2500125114 0.7484271014
0.3333333333 0.2500125114 0.7484271014
0.1666666667 0.2500125114 0.7484271014
0.0 0.2500125114 0.7484271014
0.4166666667 0.2500125114 1.0
0.25 0.2500125114 1.0
0.0833333333 0.2500125114 1.0
0.5 0.5000250228 0.2452813041
0.3333333333 0.5000250228 0.2452813041
0.1666666667 0.5000250228 0.2452813041
0.0 0.5000250228 0.2452813041
0.4166666667 0.5000250228 0.4968542027
0.25 0.5000250228 0.4968542027
0.0833333333 0.5000250228 0.4968542027
0.5 0.5000250228 0.7484271014
0.3333333333 0.5000250228 0.7484271014
0.1666666667 0.5000250228 0.7484271014
0.0 0.5000250228 0.7484271014
0.4166666667 0.5000250228 1.0
0.25 0.5000250228 1.0
0.0833333333 0.5000250228 1.0
0.5 0.7500375341 0.2452813041
0.3333333333 0.7500375341 0.2452813041
0.1666666667 0.7500375341 0.2452813041
0.0 0.7500375341 0.2452813041
0.4166666667 0.7500375341 0.4968542027
0.25 0.7500375341 0.4968542027
0.0833333333 0.7500375341 0.4968542027
0.5 0.7500375341 0.7484271014
0.3333333333 0.7500375341 0.7484271014
0.1666666667 0.7500375341 0.7484271014
0.0 0.7500375341 0.7484271014
0.4166666667 0.7500375341 1.0
0.25 0.7500375341 1.0
0.0833333333 0.7500375341 1.0
0.6666666667 0.0 0.2452813041
0.8333333333 0.0 0.2452813041
0.5833333333 0.0 0.4968542027
0.75 0.0 0.4968542027
0.9166666667 0.0 0.4968542027
0.6666666667 0.0 0.7484271014
0.8333333333 0.0 0.7484271014
0.5833333333 0.0 1.0
0.75 0.0 1.0
0.9166666667 0.0 1.0
0.6666666667 0.2500125114 0.2452813041
0.8333333333 0.2500125114 0.2452813041
0.5833333333 0.2500125114 0.4968542027
0.75 0.2500125114 0.4968542027
0.9166666667 0.2500125114 0.4968542027
0.6666666667 0.2500125114 0.7484271014
0.8333333333 0.2500125114 0.7484271014
0.5833333333 0.2500125114 1.0
0.75 0.2500125114 1.0
0.9166666667 0.2500125114 1.0
0.6666666667 0.5000250228 0.2452813041
0.8333333333 0.5000250228 0.2452813041
0.5833333333 0.5000250228 0.4968542027
0.75 0.5000250228 0.4968542027
0.9166666667 0.5000250228 0.4968542027
0.6666666667 0.5000250228 0.7484271014
0.8333333333 0.5000250228 0.7484271014
0.5833333333 0.5000250228 1.0
0.75 0.5000250228 1.0
0.9166666667 0.5000250228 1.0
0.6666666667 0.7500375341 0.2452813041
0.8333333333 0.7500375341 0.2452813041
0.5833333333 0.7500375341 0.4968542027
0.75 0.7500375341 0.4968542027
0.9166666667 0.7500375341 0.4968542027
0.6666666667 0.7500375341 0.7484271014
0.8333333333 0.7500375341 0.7484271014
0.5833333333 0.7500375341 1.0
0.75 0.7500375341 1.0
0.9166666667 0.7500375341 1.0
0.4166666667 0.1250062557 0.2452813041
0.25 0.1250062557 0.2452813041
0.0833333333 0.1250062557 0.2452813041
0.5 0.1250062557 0.4968542027
0.3333333333 0.1250062557 0.4968542027
0.1666666667 0.1250062557 0.4968542027
0.0 0.1250062557 0.4968542027
0.4166666667 0.1250062557 0.7484271014
0.25 0.1250062557 0.7484271014
0.0833333333 0.1250062557 0.7484271014
0.5 0.1250062557 1.0
0.3333333333 0.1250062557 1.0
0.1666666667 0.1250062557 1.0
0.0 0.1250062557 1.0
0.4166666667 0.3750187671 0.2452813041
0.25 0.3750187671 0.2452813041
0.0833333333 0.3750187671 0.2452813041
0.5 0.3750187671 0.4968542027
0.3333333333 0.3750187671 0.4968542027
0.1666666667 0.3750187671 0.4968542027
0.0 0.3750187671 0.4968542027
0.4166666667 0.3750187671 0.7484271014
0.25 0.3750187671 0.7484271014
0.0833333333 0.3750187671 0.7484271014
0.5 0.3750187671 1.0
0.3333333333 0.3750187671 1.0
0.1666666667 0.3750187671 1.0
0.0 0.3750187671 1.0
0.4166666667 0.6250312784 0.2452813041
0.25 0.6250312784 0.2452813041
0.0833333333 0.6250312784 0.2452813041
0.5 0.6250312784 0.4968542027
0.3333333333 0.6250312784 0.4968542027
0.1666666667 0.6250312784 0.4968542027
0.0 0.6250312784 0.4968542027
0.4166666667 0.6250312784 0.7484271014
0.25 0.6250312784 0.7484271014
0.0833333333 0.6250312784 0.7484271014
0.5 0.6250312784 1.0
0.3333333333 0.6250312784 1.0
0.1666666667 0.6250312784 1.0
0.0 0.6250312784 1.0
0.4166666667 0.8750437898 0.2452813041
0.25 0.8750437898 0.2452813041
0.0833333333 0.8750437898 0.2452813041
0.5 0.8750437898 0.4968542027
0.3333333333 0.8750437898 0.4968542027
0.1666666667 0.8750437898 0.4968542027
0.0 0.8750437898 0.4968542027
0.4166666667 0.8750437898 0.7484271014
0.25 0.8750437898 0.7484271014
0.0833333333 0.8750437898 0.7484271014
0.5 0.8750437898 1.0
0.3333333333 0.8750437898 1.0
0.1666666667 0.8750437898 1.0
0.0 0.8750437898 1.0
0.5833333333 0.1250062557 0.2452813041
0.75 0.1250062557 0.2452813041
0.9166666667 0.1250062557 0.2452813041
0.6666666667 0.1250062557 0.4968542027
0.8333333333 0.1250062557 0.4968542027
0.5833333333 0.1250062557 0.7484271014
0.75 0.1250062557 0.7484271014
0.9166666667 0.1250062557 0.7484271014
0.6666666667 0.1250062557 1.0
0.8333333333 0.1250062557 1.0
0.5833333333 0.3750187671 0.2452813041
0.75 0.3750187671 0.2452813041
0.9166666667 0.3750187671 0.2452813041
0.6666666667 0.3750187671 0.4968542027
0.8333333333 0.3750187671 0.4968542027
0.5833333333 0.3750187671 0.7484271014
0.75 0.3750187671 0.7484271014
0.9166666667 0.3750187671 0.7484271014
0.6666666667 0.3750187671 1.0
0.8333333333 0.3750187671 1.0
0.5833333333 0.6250312784 0.2452813041
0.75 0.6250312784 0.2452813041
0.9166666667 0.6250312784 0.2452813041
0.6666666667 0.6250312784 0.4968542027
0.8333333333 0.6250312784 0.4968542027
0.5833333333 0.6250312784 0.7484271014
0.75 0.6250312784 0.7484271014
0.9166666667 0.6250312784 0.7484271014
0.6666666667 0.6250312784 1.0
0.8333333333 0.6250312784 1.0
0.5833333333 0.8750437898 0.2452813041
0.75 0.8750437898 0.2452813041
0.9166666667 0.8750437898 0.2452813041
0.6666666667 0.8750437898 0.4968542027
0.8333333333 0.8750437898 0.4968542027
0.5833333333 0.8750437898 0.7484271014
0.75 0.8750437898 0.7484271014
0.9166666667 0.8750437898 0.7484271014
0.6666666667 0.8750437898 1.0
0.8333333333 0.8750437898 1.0
0.5416464936 0.130378508 0.1193232889
0.3750052683 0.1243199832 0.1194751023
0.3312600475 0.2498420235 5.7001919102e-04
0.2083334129 0.1249959152 0.119494559
0.1645932578 0.2498568426 0.0
0.0416710604 0.1238357169 0.1194705515
0.4583131602 0.1196340219 0.1196664191
0.4583429335 0.1275638774 0.3709860705
0.4182498458 0.249852996 0.2376743359
0.29161079 0.118475046 0.1196698297
0.29166768 0.1251258392 0.3710645204
0.2521630601 0.2498416666 0.2386634333
0.1249549648 0.1191502304 0.1196351314
0.1250006989 0.1250979186 0.3710655379
0.0849168474 0.2499059146 0.2397052037
0.5416762668 0.1224486153 0.3711494372
0.5416464936 0.130378508 0.6224690862
0.4939640906 0.2498817074 0.4968542027
0.3749503954 0.1314561725 0.3712531555
0.3750052683 0.1243199832 0.6226208996
0.3312600475 0.2498420235 0.5037158164
0.2082783905 0.1314283691 0.371234153
0.2083334129 0.1249959152 0.6226403562
0.1645932578 0.2498568426 0.5031457973
0.0416516999 0.1289922247 0.3711505033
0.0416710604 0.1238357169 0.6226163488
0.0060359094 0.2499624659 0.4968542027
0.4583131602 0.1196340219 0.6228122163
0.4583429335 0.1275638774 0.8741318677
0.4182498458 0.249852996 0.7408201332
0.29161079 0.118475046 0.622815627
0.29166768 0.1251258392 0.8742103177
0.2521630601 0.2498416666 0.7418092305
0.1249549648 0.1191502304 0.6227809286
0.1250006989 0.1250979186 0.8742113351
0.0849168474 0.2499059146 0.7428510009
0.5416762668 0.1224486153 0.8742952344
0.4939640906 0.2498817074 1.0
0.3749503954 0.1314561725 0.8743989528
0.2082783905 0.1314283691 0.8743799503
0.0416516999 0.1289922247 0.8742963005
0.0060359094 0.2499624659 1.0
0.5416464936 0.3696465147 0.1193232889
0.3750052683 0.3757050395 0.1194751023
0.2083334129 0.3750291075 0.119494559
0.0416710604 0.3761893058 0.1194705515
0.4583131602 0.3803910008 0.1196664191
0.4583429335 0.3724611453 0.3709860705
0.4150834875 0.4998659985 0.25287193
0.29161079 0.3815499768 0.1196698297
0.29166768 0.3748991835 0.3710645204
0.2478369399 0.4998551303 0.2518625903
0.1249549648 0.3808747924 0.1196351314
0.1250006989 0.3749271042 0.3710655379
0.0817498192 0.4999187858 0.2508410553
0.5416762668 0.3775764074 0.3711494372
0.5416464936 0.3696465147 0.6224690862
0.4939640906 0.4998942188 0.4968542027
0.3749503954 0.3685688503 0.3712531555
0.3750052683 0.3757050395 0.6226208996
0.3354066191 0.4998542087 0.489980578
0.2082783905 0.3685966537 0.371234153
0.2083334129 0.3750291075 0.6226403562
0.1687400756 0.4998690549 0.4905505958
0.0416516999 0.3710327981 0.3711505033
0.0416710604 0.3761893058 0.6226163488
0.0060359094 0.4999749772 0.4968542027
0.4583131602 0.3803910008 0.6228122163
0.4583429335 0.3724611453 0.8741318677
0.4150834875 0.4998659985 0.7560177272
0.29161079 0.3815499768 0.622815627
0.29166768 0.3748991835 0.8742103177
0.2478369399 0.4998551303 0.7550083875
0.1249549648 0.3808747924 0.6227809286
0.1250006989 0.3749271042 0.8742113351
0.0817498192 0.4999187858 0.7539868526
0.5416762668 0.3775764074 0.8742952344
0.4939640906 0.4998942188 1.0
0.3749503954 0.3685688503 0.8743989528
0.3354066191 0.4998542087 0.9931263753
0.2082783905 0.3685966537 0.8743799503
0.1687400756 0.4998690549 0.9936963931
0.0416516999 0.3710327981 0.8742963005
0.0060359094 0.4999749772 1.0
0.5416464936 0.6304035308 0.1193232889
0.3750052683 0.624345006 0.1194751023
0.3312600475 0.7498670463 5.7001919102e-04
0.2083334129 0.625020938 0.119494559
0.1645932578 0.7498818654 0.0
0.0416710604 0.6238607397 0.1194705515
0.4583131602 0.6196590447 0.1196664191
0.4583429335 0.6275889002 0.3709860705
0.4182498458 0.7498780188 0.2376743359
0.29161079 0.6185000687 0.1196698297
0.29166768 0.625150862 0.3710645204
0.2521630601 0.7498666894 0.2386634333
0.1249549648 0.6191752531 0.1196351314
0.1250006989 0.6251229413 0.3710655379
0.0849168474 0.7499309373 0.2397052037
0.5416762668 0.6224736381 0.3711494372
0.5416464936 0.6304035308 0.6224690862
0.4939640906 0.7499067302 0.4968542027
0.3749503954 0.6314811952 0.3712531555
0.3750052683 0.624345006 0.6226208996
0.3312600475 0.7498670463 0.5037158164
0.2082783905 0.6314533918 0.371234153
0.2083334129 0.625020938 0.6226403562
0.1645932578 0.7498818654 0.5031457973
0.0416516999 0.6290172474 0.3711505033
0.0416710604 0.6238607397 0.6226163488
0.0060359094 0.7499874886 0.4968542027
0.4583131602 0.6196590447 0.6228122163
0.4583429335 0.6275889002 0.8741318677
0.4182498458 0.7498780188 0.7408201332
0.29161079 0.6185000687 0.622815627
0.29166768 0.625150862 0.8742103177
0.2521630601 0.7498666894 0.7418092305
0.1249549648 0.6191752531 0.6227809286
0.1250006989 0.6251229413 0.8742113351
0.0849168474 0.7499309373 0.7428510009
0.5416762668 0.6224736381 0.8742952344
0.4939640906 0.7499067302 1.0
0.3749503954 0.6314811952 0.8743989528
0.2082783905 0.6314533918 0.8743799503
0.0416516999 0.6290172474 0.8742963005
0.0060359094 0.7499874886 1.0
0.5416464936 0.8696715375 0.1193232889
0.3750052683 0.8757300623 0.1194751023
0.2083334129 0.8750541303 0.119494559
0.0416710604 0.8762143286 0.1194705515
0.4583131602 0.8804160236 0.1196664191
0.4583429335 0.8724861681 0.3709860705
0.4150834875 0.9998910213 0.25287193
0.29161079 0.8815749996 0.1196698297
0.29166768 0.8749242063 0.3710645204
0.2478369399 0.999880153 0.2518625903
0.1249549648 0.8808998151 0.1196351314
0.1250006989 0.8749521269 0.3710655379
0.0817498192 0.9999438086 0.2508410553
0.5416762668 0.8776014302 0.3711494372
0.5416464936 0.8696715375 0.6224690862
0.4939640906 0.9999192415 0.4968542027
0.3749503954 0.868593873 0.3712531555
0.3750052683 0.8757300623 0.6226208996
0.3354066191 0.9998792314 0.489980578
0.2082783905 0.8686216764 0.371234153
0.2083334129 0.8750541303 0.6226403562
0.1687400756 0.9998940777 0.4905505958
0.0416516999 0.8710578208 0.3711505033
0.0416710604 0.8762143286 0.6226163488
0.0060359094 1.0 0.4968542027
0.4583131602 0.8804160236 0.6228122163
0.4583429335 0.8724861681 0.8741318677
0.4150834875 0.9998910213 0.7560177272
0.29161079 0.8815749996 0.622815627
0.29166768 0.8749242063 0.8742103177
0.2478369399 0.999880153 0.7550083875
0.1249549648 0.8808998151 0.6227809286
0.1250006989 0.8749521269 0.8742113351
0.0817498192 0.9999438086 0.7539868526
0.5416762668 0.8776014302 0.8742952344
0.4939640906 0.9999192415 1.0
0.3749503954 0.868593873 0.8743989528
0.3354066191 0.9998792314 0.9931263753
0.2082783905 0.8686216764 0.8743799503
0.1687400756 0.9998940777 0.9936963931
0.0416516999 0.8710578208 0.8742963005
0.0060359094 1.0 1.0
0.7082774566 0.1315375034 0.1193198758
0.8749549648 0.1308623814 0.1193545688
0.6250052683 0.1256926287 0.1195146084
0.6249503954 0.1185562386 0.3708823409
0.5849165125 0.2498534871 0.25287193
0.7916667462 0.1250166343 0.1194951506
0.7916117238 0.1185841043 0.3709013499
0.7521630601 0.2498426189 0.2518625903
0.9583377271 0.1261768131 0.1195191584
0.9583183666 0.1210202681 0.3709850024
0.9182501808 0.2499062744 0.2508410553
0.7083343467 0.124886634 0.3710709865
0.7082774566 0.1315375034 0.6224656731
0.6645933809 0.2498416973 0.489980578
0.8750006989 0.1249144922 0.3710699691
0.8749549648 0.1308623814 0.622500366
0.8312599244 0.2498565435 0.4905505958
0.6250052683 0.1256926287 0.6226604057
0.6249503954 0.1185562386 0.8740281381
0.5849165125 0.2498534871 0.7560177272
0.7916667462 0.1250166343 0.6226409479
0.7916117238 0.1185841043 0.8740471472
0.7521630601 0.2498426189 0.7550083875
0.9583377271 0.1261768131 0.6226649557
0.9583183666 0.1210202681 0.8741307996
0.9182501808 0.2499062744 0.7539868526
0.7083343467 0.124886634 0.8742167838
0.6645933809 0.2498416973 0.9931263753
0.8750006989 0.1249144922 0.8742157664
0.8312599244 0.2498565435 0.9936963931
0.7082774566 0.3684875193 0.1193198758
0.6687399525 0.4998545349 5.7001919102e-04
0.8749549648 0.3691626414 0.1193545688
0.8354067422 0.499869354 0.0
0.6250052683 0.374332394 0.1195146084
0.6249503954 0.3814687842 0.3708823409
0.5817501542 0.4998655074 0.2376743359
0.7916667462 0.3750083885 0.1194951506
0.7916117238 0.3814409185 0.3709013499
0.7478369399 0.499854178 0.2386634333
0.9583377271 0.3738482097 0.1195191584
0.9583183666 0.3790047547 0.3709850024
0.9150831526 0.4999184259 0.2397052037
0.7083343467 0.3751383887 0.3710709865
0.7082774566 0.3684875193 0.6224656731
0.6687399525 0.4998545349 0.5037158164
0.8750006989 0.3751105305 0.3710699691
0.8749549648 0.3691626414 0.622500366
0.8354067422 0.499869354 0.5031457973
0.6250052683 0.374332394 0.6226604057
0.6249503954 0.3814687842 0.8740281381
0.5817501542 0.4998655074 0.7408201332
0.7916667462 0.3750083885 0.6226409479
0.7916117238 0.3814409185 0.8740471472
0.7478369399 0.499854178 0.7418092305
0.9583377271 0.3738482097 0.6226649557
0.9583183666 0.3790047547 0.8741307996
0.9150831526 0.4999184259 0.7428510009
0.7083343467 0.3751383887 0.8742167838
0.8750006989 0.3751105305 0.8742157664
0.7082774566 0.6315625262 0.1193198758
0.8749549648 0.6308874041 0.1193545688
0.6250052683 0.6257176515 0.1195146084
0.6249503954 0.6185812613 0.3708823409
0.5849165125 0.7498785099 0.25287193
0.7916667462 0.625041657 0.1194951506
0.7916117238 0.618609127 0.3709013499
0.7521630601 0.7498676416 0.2518625903
0.9583377271 0.6262018359 0.1195191584
0.9583183666 0.6210452908 0.3709850024
0.9182501808 0.7499312972 0.2508410553
0.7083343467 0.6249116568 0.3710709865
0.7082774566 0.6315625262 0.6224656731
0.6645933809 0.7498667201 0.489980578
0.8750006989 0.624939515 0.3710699691
0.8749549648 0.6308874041 0.622500366
0.8312599244 0.7498815663 0.4905505958
0.6250052683 0.6257176515 0.6226604057
0.6249503954 0.6185812613 0.8740281381
0.5849165125 0.7498785099 0.7560177272
0.7916667462 0.625041657 0.6226409479
0.7916117238 0.618609127 0.8740471472
0.7521630601 0.7498676416 0.7550083875
0.9583377271 0.6262018359 0.6226649557
0.9583183666 0.6210452908 0.8741307996
0.9182501808 0.7499312972 0.7539868526
0.7083343467 0.6249116568 0.8742167838
0.6645933809 0.7498667201 0.9931263753
0.8750006989 0.624939515 0.8742157664
0.8312599244 0.7498815663 0.9936963931
0.7082774566 0.8685125421 0.1193198758
0.6687399525 0.9998795576 5.7001919102e-04
0.8749549648 0.8691876641 0.1193545688
0.8354067422 0.9998943768 0.0
0.6250052683 0.8743574168 0.1195146084
0.6249503954 0.8814938069 0.3708823409
0.5817501542 0.9998905302 0.2376743359
0.7916667462 0.8750334112 0.1194951506
0.7916117238 0.8814659412 0.3709013499
0.7478369399 0.9998792007 0.2386634333
0.9583377271 0.8738732324 0.1195191584
0.9583183666 0.8790297775 0.3709850024
0.9150831526 0.9999434487 0.2397052037
0.7083343467 0.8751634115 0.3710709865
0.7082774566 0.8685125421 0.6224656731
0.6687399525 0.9998795576 0.5037158164
0.8750006989 0.8751355533 0.3710699691
0.8749549648 0.8691876641 0.622500366
0.8354067422 0.9998943768 0.5031457973
0.6250052683 0.8743574168 0.6226604057
0.6249503954 0.8814938069 0.8740281381
0.5817501542 0.9998905302 0.7408201332
0.7916667462 0.8750334112 0.6226409479
0.7916117238 0.8814659412 0.8740471472
0.7478369399 0.9998792007 0.7418092305
0.9583377271 0.8738732324 0.6226649557
0.9583183666 0.8790297775 0.8741307996
0.9150831526 0.9999434487 0.7428510009
0.7083343467 0.8751634115 0.8742167838
0.8750006989 0.8751355533 0.8742157664
