POSCAR file written by Ovito 3.15.2
1
33.1350237664 0.0 0.0
0.0 7.8092183282 0.0
0.0 0.0 22.0209596069
Sr Ti O 
96 96 288 
Direct
0.5 0.0 0.1222560593
0.3333333333 0.0 0.1222560593
0.1666666667 0.0 0.1222560593
0.0 0.0 0.1222560593
0.4166666667 0.0 0.2476480508
0.25 0.0 0.2476480508
0.0833333333 0.0 0.2476480508
0.5 0.0 0.3730400423
0.3333333333 0.0 0.3730400423
0.1666666667 0.0 0.3730400423
0.0 0.0 0.3730400423
0.4166666667 0.0 0.4984320339
0.25 0.0 0.4984320339
0.0833333333 0.0 0.4984320339
0.5 0.0 0.6238240254
0.3333333333 0.0 0.6238240254
0.1666666667 0.0 0.6238240254
0.0 0.0 0.6238240254
0.4166666667 0.0 0.7492160169
0.25 0.0 0.7492160169
0.0833333333 0.0 0.7492160169
0.5 0.0 0.8746080085
0.3333333333 0.0 0.8746080085
0.1666666667 0.0 0.8746080085
0.0 0.0 0.8746080085
0.4166666667 0.0 1.0
0.25 0.0 1.0
0.0833333333 0.0 1.0
0.5 0.500050048 0.1222560593
0.3333333333 0.500050048 0.1222560593
0.1666666667 0.500050048 0.1222560593
0.0 0.500050048 0.1222560593
0.4166666667 0.500050048 0.2476480508
0.25 0.500050048 0.2476480508
0.0833333333 0.500050048 0.2476480508
0.5 0.500050048 0.3730400423
0.3333333333 0.500050048 0.3730400423
0.1666666667 0.500050048 0.3730400423
0.0 0.500050048 0.3730400423
0.4166666667 0.500050048 0.4984320339
0.25 0.500050048 0.4984320339
0.0833333333 0.500050048 0.4984320339
0.5 0.500050048 0.6238240254
0.3333333333 0.500050048 0.6238240254
0.1666666667 0.500050048 0.6238240254
0.0 0.500050048 0.6238240254
0.4166666667 0.500050048 0.7492160169
0.25 0.500050048 0.7492160169
0.0833333333 0.500050048 0.7492160169
0.5 0.500050048 0.8746080085
0.3333333333 0.500050048 0.8746080085
0.1666666667 0.500050048 0.8746080085
0.0 0.500050048 0.8746080085
0.4166666667 0.500050048 1.0
0.25 0.500050048 1.0
0.0833333333 0.500050048 1.0
0.6666666667 0.0 0.1222560593
0.8333333333 0.0 0.1222560593
0.5833333333 0.0 0.2476480508
0.75 0.0 0.2476480508
0.9166666667 0.0 0.2476480508
0.6666666667 0.0 0.3730400423
0.8333333333 0.0 0.3730400423
0.5833333333 0.0 0.4984320339
0.75 0.0 0.4984320339
0.9166666667 0.0 0.4984320339
0.6666666667 0.0 0.6238240254
0.8333333333 0.0 0.6238240254
0.5833333333 0.0 0.7492160169
0.75 0.0 0.7492160169
0.9166666667 0.0 0.7492160169
0.6666666667 0.0 0.8746080085
0.8333333333 0.0 0.8746080085
0.5833333333 0.0 1.0
0.75 0.0 1.0
0.9166666667 0.0 1.0
0.6666666667 0.500050048 0.1222560593
0.8333333333 0.500050048 0.1222560593
0.5833333333 0.500050048 0.2476480508
0.75 0.500050048 0.2476480508
0.9166666667 0.500050048 0.2476480508
0.6666666667 0.500050048 0.3730400423
0.8333333333 0.500050048 0.3730400423
0.5833333333 0.500050048 0.4984320339
0.75 0.500050048 0.4984320339
0.9166666667 0.500050048 0.4984320339
0.6666666667 0.500050048 0.6238240254
0.8333333333 0.500050048 0.6238240254
0.5833333333 0.500050048 0.7492160169
0.75 0.500050048 0.7492160169
0.9166666667 0.500050048 0.7492160169
0.6666666667 0.500050048 0.8746080085
0.8333333333 0.500050048 0.8746080085
0.5833333333 0.500050048 1.0
0.75 0.500050048 1.0
0.9166666667 0.500050048 1.0
0.4166666667 0.250025024 0.1222560593
0.25 0.250025024 0.1222560593
0.0833333333 0.250025024 0.1222560593
0.5 0.250025024 0.2476480508
0.3333333333 0.250025024 0.2476480508
0.1666666667 0.250025024 0.2476480508
0.0 0.250025024 0.2476480508
0.4166666667 0.250025024 0.3730400423
0.25 0.250025024 0.3730400423
0.0833333333 0.250025024 0.3730400423
0.5 0.250025024 0.4984320339
0.3333333333 0.250025024 0.4984320339
0.1666666667 0.250025024 0.4984320339
0.0 0.250025024 0.4984320339
0.4166666667 0.250025024 0.6238240254
0.25 0.250025024 0.6238240254
0.0833333333 0.250025024 0.6238240254
0.5 0.250025024 0.7492160169
0.3333333333 0.250025024 0.7492160169
0.1666666667 0.250025024 0.7492160169
0.0 0.250025024 0.7492160169
0.4166666667 0.250025024 0.8746080085
0.25 0.250025024 0.8746080085
0.0833333333 0.250025024 0.8746080085
0.5 0.250025024 1.0
0.3333333333 0.250025024 1.0
0.1666666667 0.250025024 1.0
0.0 0.250025024 1.0
0.4166666667 0.750075072 0.1222560593
0.25 0.750075072 0.1222560593
0.0833333333 0.750075072 0.1222560593
0.5 0.750075072 0.2476480508
0.3333333333 0.750075072 0.2476480508
0.1666666667 0.750075072 0.2476480508
0.0 0.750075072 0.2476480508
0.4166666667 0.750075072 0.3730400423
0.25 0.750075072 0.3730400423
0.0833333333 0.750075072 0.3730400423
0.5 0.750075072 0.4984320339
0.3333333333 0.750075072 0.4984320339
0.1666666667 0.750075072 0.4984320339
0.0 0.750075072 0.4984320339
0.4166666667 0.750075072 0.6238240254
0.25 0.750075072 0.6238240254
0.0833333333 0.750075072 0.6238240254
0.5 0.750075072 0.7492160169
0.3333333333 0.750075072 0.7492160169
0.1666666667 0.750075072 0.7492160169
0.0 0.750075072 0.7492160169
0.4166666667 0.750075072 0.8746080085
0.25 0.750075072 0.8746080085
0.0833333333 0.750075072 0.8746080085
0.5 0.750075072 1.0
0.3333333333 0.750075072 1.0
0.1666666667 0.750075072 1.0
0.0 0.750075072 1.0
0.5833333333 0.250025024 0.1222560593
0.75 0.250025024 0.1222560593
0.9166666667 0.250025024 0.1222560593
0.6666666667 0.250025024 0.2476480508
0.8333333333 0.250025024 0.2476480508
0.5833333333 0.250025024 0.3730400423
0.75 0.250025024 0.3730400423
0.9166666667 0.250025024 0.3730400423
0.6666666667 0.250025024 0.4984320339
0.8333333333 0.250025024 0.4984320339
0.5833333333 0.250025024 0.6238240254
0.75 0.250025024 0.6238240254
0.9166666667 0.250025024 0.6238240254
0.6666666667 0.250025024 0.7492160169
0.8333333333 0.250025024 0.7492160169
0.5833333333 0.250025024 0.8746080085
0.75 0.250025024 0.8746080085
0.9166666667 0.250025024 0.8746080085
0.6666666667 0.250025024 1.0
0.8333333333 0.250025024 1.0
0.5833333333 0.750075072 0.1222560593
0.75 0.750075072 0.1222560593
0.9166666667 0.750075072 0.1222560593
0.6666666667 0.750075072 0.2476480508
0.8333333333 0.750075072 0.2476480508
0.5833333333 0.750075072 0.3730400423
0.75 0.750075072 0.3730400423
0.9166666667 0.750075072 0.3730400423
0.6666666667 0.750075072 0.4984320339
0.8333333333 0.750075072 0.4984320339
0.5833333333 0.750075072 0.6238240254
0.75 0.750075072 0.6238240254
0.9166666667 0.750075072 0.6238240254
0.6666666667 0.750075072 0.7492160169
0.8333333333 0.750075072 0.7492160169
0.5833333333 0.750075072 0.8746080085
0.75 0.750075072 0.8746080085
0.9166666667 0.750075072 0.8746080085
0.6666666667 0.750075072 1.0
0.8333333333 0.750075072 1.0
0.5416464936 0.2607700665 0.0594745496
0.3750052683 0.2486524104 0.0595502182
0.3312600475 0.4997090552 2.8411582473e-04
0.2083334129 0.250004342 0.0595599161
0.1645932578 0.4997386949 0.0
0.0416710604 0.2476838293 0.05954795
0.4583131602 0.2392800188 0.0596455766
0.4583429335 0.2551405235 0.1849113416
0.4182498458 0.4997310014 0.1184645027
0.29161079 0.2369619508 0.0596472766
0.29166768 0.2502642031 0.1849504436
0.2521630601 0.4997083414 0.1189575005
0.1249549648 0.2383123872 0.0596299819
0.1250006989 0.250208359 0.1849509507
0.0849168474 0.4998368437 0.1194767522
0.5416762668 0.2449094873 0.1849927688
0.5416464936 0.2607700665 0.3102585327
0.4939640906 0.499788427 0.2476480508
0.3749503954 0.2629255032 0.1850444654
0.3750052683 0.2486524104 0.3103342013
0.3312600475 0.4997090552 0.2510680989
0.2082783905 0.2628698936 0.1850349939
0.2083334129 0.250004342 0.3103438991
0.1645932578 0.4997386949 0.2507839831
0.0416516999 0.257997361 0.1849933002
0.0416710604 0.2476838293 0.3103319331
0.0060359094 0.499949952 0.2476480508
0.4583131602 0.2392800188 0.3104295597
0.4583429335 0.2551405235 0.4356953247
0.4182498458 0.4997310014 0.3692484857
0.29161079 0.2369619508 0.3104312597
0.29166768 0.2502642031 0.4357344267
0.2521630601 0.4997083414 0.3697414835
0.1249549648 0.2383123872 0.3104139649
0.1250006989 0.250208359 0.4357349338
0.0849168474 0.4998368437 0.3702607353
0.5416762668 0.2449094873 0.4357767519
0.5416464936 0.2607700665 0.5610425157
0.4939640906 0.499788427 0.4984320339
0.3749503954 0.2629255032 0.4358284485
0.3750052683 0.2486524104 0.5611181844
0.3312600475 0.4997090552 0.5018520819
0.2082783905 0.2628698936 0.435818977
0.2083334129 0.250004342 0.5611278822
0.1645932578 0.4997386949 0.5015679661
0.0416516999 0.257997361 0.4357772833
0.0416710604 0.2476838293 0.5611159161
0.0060359094 0.499949952 0.4984320339
0.4583131602 0.2392800188 0.5612135428
0.4583429335 0.2551405235 0.6864793078
0.4182498458 0.4997310014 0.6200324688
0.29161079 0.2369619508 0.5612152428
0.29166768 0.2502642031 0.6865184097
0.2521630601 0.4997083414 0.6205254666
0.1249549648 0.2383123872 0.561197948
0.1250006989 0.250208359 0.6865189169
0.0849168474 0.4998368437 0.6210447183
0.5416762668 0.2449094873 0.686560735
0.5416464936 0.2607700665 0.8118264988
0.4939640906 0.499788427 0.7492160169
0.3749503954 0.2629255032 0.6866124315
0.3750052683 0.2486524104 0.8119021674
0.3312600475 0.4997090552 0.752636065
0.2082783905 0.2628698936 0.6866029601
0.2083334129 0.250004342 0.8119118653
0.1645932578 0.4997386949 0.7523519492
0.0416516999 0.257997361 0.6865612663
0.0416710604 0.2476838293 0.8118998992
0.0060359094 0.499949952 0.7492160169
0.4583131602 0.2392800188 0.8119975258
0.4583429335 0.2551405235 0.9372632908
0.4182498458 0.4997310014 0.8708164518
0.29161079 0.2369619508 0.8119992258
0.29166768 0.2502642031 0.9373023928
0.2521630601 0.4997083414 0.8713094496
0.1249549648 0.2383123872 0.811981931
0.1250006989 0.250208359 0.9373028999
0.0849168474 0.4998368437 0.8718287014
0.5416762668 0.2449094873 0.937344718
0.4939640906 0.499788427 1.0
0.3749503954 0.2629255032 0.9373964146
0.2082783905 0.2628698936 0.9373869431
0.0416516999 0.257997361 0.9373452494
0.0060359094 0.499949952 1.0
0.5416464936 0.7393300296 0.0594745496
0.3750052683 0.7514476856 0.0595502182
0.2083334129 0.750095754 0.0595599161
0.0416710604 0.7524162667 0.05954795
0.4583131602 0.7608200773 0.0596455766
0.4583429335 0.7449595725 0.1849113416
0.4150834875 0.9997820316 0.1260394704
0.29161079 0.7631381452 0.0596472766
0.29166768 0.749835893 0.1849504436
0.2478369399 0.999760294 0.1255363831
0.1249549648 0.7617877088 0.0596299819
0.1250006989 0.7498917371 0.1849509507
0.0817498192 0.9998876115 0.1250272174
0.5416762668 0.7551906088 0.1849927688
0.5416464936 0.7393300296 0.3102585327
0.4939640906 0.999838475 0.2476480508
0.3749503954 0.7371745928 0.1850444654
0.3750052683 0.7514476856 0.3103342013
0.3354066191 0.9997584508 0.2442220161
0.2082783905 0.7372302024 0.1850349939
0.2083334129 0.750095754 0.3103438991
0.1687400756 0.9997881447 0.2445061312
0.0416516999 0.742102735 0.1849933002
0.0416710604 0.7524162667 0.3103319331
0.0060359094 1.0 0.2476480508
0.4583131602 0.7608200773 0.3104295597
0.4583429335 0.7449595725 0.4356953247
0.4150834875 0.9997820316 0.3768234534
0.29161079 0.7631381452 0.3104312597
0.29166768 0.749835893 0.4357344267
0.2478369399 0.999760294 0.3763203662
0.1249549648 0.7617877088 0.3104139649
0.1250006989 0.7498917371 0.4357349338
0.0817498192 0.9998876115 0.3758112004
0.5416762668 0.7551906088 0.4357767519
0.5416464936 0.7393300296 0.5610425157
0.4939640906 0.999838475 0.4984320339
0.3749503954 0.7371745928 0.4358284485
0.3750052683 0.7514476856 0.5611181844
0.3354066191 0.9997584508 0.4950059991
0.2082783905 0.7372302024 0.435818977
0.2083334129 0.750095754 0.5611278822
0.1687400756 0.9997881447 0.4952901143
0.0416516999 0.742102735 0.4357772833
0.0416710604 0.7524162667 0.5611159161
0.0060359094 1.0 0.4984320339
0.4583131602 0.7608200773 0.5612135428
0.4583429335 0.7449595725 0.6864793078
0.4150834875 0.9997820316 0.6276074365
0.29161079 0.7631381452 0.5612152428
0.29166768 0.749835893 0.6865184097
0.2478369399 0.999760294 0.6271043492
0.1249549648 0.7617877088 0.561197948
0.1250006989 0.7498917371 0.6865189169
0.0817498192 0.9998876115 0.6265951835
0.5416762668 0.7551906088 0.686560735
0.5416464936 0.7393300296 0.8118264988
0.4939640906 0.999838475 0.7492160169
0.3749503954 0.7371745928 0.6866124315
0.3750052683 0.7514476856 0.8119021674
0.3354066191 0.9997584508 0.7457899822
0.2082783905 0.7372302024 0.6866029601
0.2083334129 0.750095754 0.8119118653
0.1687400756 0.9997881447 0.7460740973
0.0416516999 0.742102735 0.6865612663
0.0416710604 0.7524162667 0.8118998992
0.0060359094 1.0 0.7492160169
0.4583131602 0.7608200773 0.8119975258
0.4583429335 0.7449595725 0.9372632908
0.4150834875 0.9997820316 0.8783914196
0.29161079 0.7631381452 0.8119992258
0.29166768 0.749835893 0.9373023928
0.2478369399 0.999760294 0.8778883323
0.1249549648 0.7617877088 0.811981931
0.1250006989 0.7498917371 0.9373028999
0.0817498192 0.9998876115 0.8773791666
0.5416762668 0.7551906088 0.937344718
0.4939640906 0.999838475 1.0
0.3749503954 0.7371745928 0.9373964146
0.3354066191 0.9997584508 0.9965739653
0.2082783905 0.7372302024 0.9373869431
0.1687400756 0.9997881447 0.9968580804
0.0416516999 0.742102735 0.9373452494
0.0060359094 1.0 1.0
0.7082774566 0.2630881732 0.0594728484
0.8749549648 0.2617378615 0.0594901405
0.6250052683 0.2513978388 0.0595699094
0.6249503954 0.2371243442 0.1848596395
0.5849165125 0.4997319836 0.1260394704
0.7916667462 0.2500457822 0.059560211
0.7916117238 0.2371800783 0.1848691142
0.7521630601 0.499710246 0.1255363831
0.9583377271 0.252366256 0.0595721772
0.9583183666 0.2420526498 0.1849108093
0.9182501808 0.4998375635 0.1250272174
0.7083343467 0.2497857687 0.1849536665
0.7082774566 0.2630881732 0.3102568315
0.6645933809 0.4997084028 0.2442220161
0.8750006989 0.2498414879 0.1849531594
0.8749549648 0.2617378615 0.3102741235
0.8312599244 0.4997380967 0.2445061312
0.6250052683 0.2513978388 0.3103538924
0.6249503954 0.2371243442 0.4356436226
0.5849165125 0.4997319836 0.3768234534
0.7916667462 0.2500457822 0.310344194
0.7916117238 0.2371800783 0.4356530973
0.7521630601 0.499710246 0.3763203662
0.9583377271 0.252366256 0.3103561603
0.9583183666 0.2420526498 0.4356947923
0.9182501808 0.4998375635 0.3758112004
0.7083343467 0.2497857687 0.4357376496
0.7082774566 0.2630881732 0.5610408145
0.6645933809 0.4997084028 0.4950059991
0.8750006989 0.2498414879 0.4357371425
0.8749549648 0.2617378615 0.5610581066
0.8312599244 0.4997380967 0.4952901143
0.6250052683 0.2513978388 0.5611378755
0.6249503954 0.2371243442 0.6864276056
0.5849165125 0.4997319836 0.6276074365
0.7916667462 0.2500457822 0.5611281771
0.7916117238 0.2371800783 0.6864370803
0.7521630601 0.499710246 0.6271043492
0.9583377271 0.252366256 0.5611401433
0.9583183666 0.2420526498 0.6864787754
0.9182501808 0.4998375635 0.6265951835
0.7083343467 0.2497857687 0.6865216326
0.7082774566 0.2630881732 0.8118247976
0.6645933809 0.4997084028 0.7457899822
0.8750006989 0.2498414879 0.6865211255
0.8749549648 0.2617378615 0.8118420896
0.8312599244 0.4997380967 0.7460740973
0.6250052683 0.2513978388 0.8119218585
0.6249503954 0.2371243442 0.9372115887
0.5849165125 0.4997319836 0.8783914196
0.7916667462 0.2500457822 0.8119121601
0.7916117238 0.2371800783 0.9372210634
0.7521630601 0.499710246 0.8778883323
0.9583377271 0.252366256 0.8119241264
0.9583183666 0.2420526498 0.9372627585
0.9182501808 0.4998375635 0.8773791666
0.7083343467 0.2497857687 0.9373056157
0.6645933809 0.4997084028 0.9965739653
0.8750006989 0.2498414879 0.9373051086
0.8312599244 0.4997380967 0.9968580804
0.7082774566 0.7370119228 0.0594728484
0.6687399525 0.9997591032 2.8411582473e-04
0.8749549648 0.7383622345 0.0594901405
0.8354067422 0.999788743 0.0
0.6250052683 0.7487022572 0.0595699094
0.6249503954 0.7629757519 0.1848596395
0.5817501542 0.9997810494 0.1184645027
0.7916667462 0.7500543138 0.059560211
0.7916117238 0.7629200177 0.1848691142
0.7478369399 0.9997583894 0.1189575005
0.9583377271 0.74773384 0.0595721772
0.9583183666 0.7580474463 0.1849108093
0.9150831526 0.9998868917 0.1194767522
0.7083343467 0.7503143273 0.1849536665
0.7082774566 0.7370119228 0.3102568315
0.6687399525 0.9997591032 0.2510680989
0.8750006989 0.7502586082 0.1849531594
0.8749549648 0.7383622345 0.3102741235
0.8354067422 0.999788743 0.2507839831
0.6250052683 0.7487022572 0.3103538924
0.6249503954 0.7629757519 0.4356436226
0.5817501542 0.9997810494 0.3692484857
0.7916667462 0.7500543138 0.310344194
0.7916117238 0.7629200177 0.4356530973
0.7478369399 0.9997583894 0.3697414835
0.9583377271 0.74773384 0.3103561603
0.9583183666 0.7580474463 0.4356947923
0.9150831526 0.9998868917 0.3702607353
0.7083343467 0.7503143273 0.4357376496
0.7082774566 0.7370119228 0.5610408145
0.6687399525 0.9997591032 0.5018520819
0.8750006989 0.7502586082 0.4357371425
0.8749549648 0.7383622345 0.5610581066
0.8354067422 0.999788743 0.5015679661
0.6250052683 0.7487022572 0.5611378755
0.6249503954 0.7629757519 0.6864276056
0.5817501542 0.9997810494 0.6200324688
0.7916667462 0.7500543138 0.5611281771
0.7916117238 0.7629200177 0.6864370803
0.7478369399 0.9997583894 0.6205254666
0.9583377271 0.74773384 0.5611401433
0.9583183666 0.7580474463 0.6864787754
0.9150831526 0.9998868917 0.6210447183
0.7083343467 0.7503143273 0.6865216326
0.7082774566 0.7370119228 0.8118247976
0.6687399525 0.9997591032 0.752636065
0.8750006989 0.7502586082 0.6865211255
0.8749549648 0.7383622345 0.8118420896
0.8354067422 0.999788743 0.7523519492
0.6250052683 0.7487022572 0.8119218585
0.6249503954 0.7629757519 0.9372115887
0.5817501542 0.9997810494 0.8708164518
0.7916667462 0.7500543138 0.8119121601
0.7916117238 0.7629200177 0.9372210634
0.7478369399 0.9997583894 0.8713094496
0.9583377271 0.74773384 0.8119241264
0.9583183666 0.7580474463 0.9372627585
0.9150831526 0.9998868917 0.8718287014
0.7083343467 0.7503143273 0.9373056157
0.8750006989 0.7502586082 0.9373051086
