POSCAR file written by Ovito 3.15.2
1
33.1350237664 0.0 0.0
0.0 15.6192183282 0.0
0.0 0.0 10.9897646644
Sr Ti O 
96 96 288 
Direct
0.5 0.0 0.2462299062
0.3333333333 0.0 0.2462299062
0.1666666667 0.0 0.2462299062
0.0 0.0 0.2462299062
0.4166666667 0.0 0.4974866042
0.25 0.0 0.4974866042
0.0833333333 0.0 0.4974866042
0.5 0.0 0.7487433021
0.3333333333 0.0 0.7487433021
0.1666666667 0.0 0.7487433021
0.0 0.0 0.7487433021
0.4166666667 0.0 1.0
0.25 0.0 1.0
0.0833333333 0.0 1.0
0.5 0.2500125114 0.2462299062
0.3333333333 0.2500125114 0.2462299062
0.1666666667 0.2500125114 0.2462299062
0.0 0.2500125114 0.2462299062
0.4166666667 0.2500125114 0.4974866042
0.25 0.2500125114 0.4974866042
0.0833333333 0.2500125114 0.4974866042
0.5 0.2500125114 0.7487433021
0.3333333333 0.2500125114 0.7487433021
0.1666666667 0.2500125114 0.7487433021
0.0 0.2500125114 0.7487433021
0.4166666667 0.2500125114 1.0
0.25 0.2500125114 1.0
0.0833333333 0.2500125114 1.0
0.5 0.5000250228 0.2462299062
0.3333333333 0.5000250228 0.2462299062
0.1666666667 0.5000250228 0.2462299062
0.0 0.5000250228 0.2462299062
0.4166666667 0.5000250228 0.4974866042
0.25 0.5000250228 0.4974866042
0.0833333333 0.5000250228 0.4974866042
0.5 0.5000250228 0.7487433021
0.3333333333 0.5000250228 0.7487433021
0.1666666667 0.5000250228 0.7487433021
0.0 0.5000250228 0.7487433021
0.4166666667 0.5000250228 1.0
0.25 0.5000250228 1.0
0.0833333333 0.5000250228 1.0
0.5 0.7500375341 0.2462299062
0.3333333333 0.7500375341 0.2462299062
0.1666666667 0.7500375341 0.2462299062
0.0 0.7500375341 0.2462299062
0.4166666667 0.7500375341 0.4974866042
0.25 0.7500375341 0.4974866042
0.0833333333 0.7500375341 0.4974866042
0.5 0.7500375341 0.7487433021
0.3333333333 0.7500375341 0.7487433021
0.1666666667 0.7500375341 0.7487433021
0.0 0.7500375341 0.7487433021
0.4166666667 0.7500375341 1.0
0.25 0.7500375341 1.0
0.0833333333 0.7500375341 1.0
0.6666666667 0.0 0.2462299062
0.8333333333 0.0 0.2462299062
0.5833333333 0.0 0.4974866042
0.75 0.0 0.4974866042
0.9166666667 0.0 0.4974866042
0.6666666667 0.0 0.7487433021
0.8333333333 0.0 0.7487433021
0.5833333333 0.0 1.0
0.75 0.0 1.0
0.9166666667 0.0 1.0
0.6666666667 0.2500125114 0.2462299062
0.8333333333 0.2500125114 0.2462299062
0.5833333333 0.2500125114 0.4974866042
0.75 0.2500125114 0.4974866042
0.9166666667 0.2500125114 0.4974866042
0.6666666667 0.2500125114 0.7487433021
0.8333333333 0.2500125114 0.7487433021
0.5833333333 0.2500125114 1.0
0.75 0.2500125114 1.0
0.9166666667 0.2500125114 1.0
0.6666666667 0.5000250228 0.2462299062
0.8333333333 0.5000250228 0.2462299062
0.5833333333 0.5000250228 0.4974866042
0.75 0.5000250228 0.4974866042
0.9166666667 0.5000250228 0.4974866042
0.6666666667 0.5000250228 0.7487433021
0.8333333333 0.5000250228 0.7487433021
0.5833333333 0.5000250228 1.0
0.75 0.5000250228 1.0
0.9166666667 0.5000250228 1.0
0.6666666667 0.7500375341 0.2462299062
0.8333333333 0.7500375341 0.2462299062
0.5833333333 0.7500375341 0.4974866042
0.75 0.7500375341 0.4974866042
0.9166666667 0.7500375341 0.4974866042
0.6666666667 0.7500375341 0.7487433021
0.8333333333 0.7500375341 0.7487433021
0.5833333333 0.7500375341 1.0
0.75 0.7500375341 1.0
0.9166666667 0.7500375341 1.0
0.4166666667 0.1250062557 0.2462299062
0.25 0.1250062557 0.2462299062
0.0833333333 0.1250062557 0.2462299062
0.5 0.1250062557 0.4974866042
0.3333333333 0.1250062557 0.4974866042
0.1666666667 0.1250062557 0.4974866042
0.0 0.1250062557 0.4974866042
0.4166666667 0.1250062557 0.7487433021
0.25 0.1250062557 0.7487433021
0.0833333333 0.1250062557 0.7487433021
0.5 0.1250062557 1.0
0.3333333333 0.1250062557 1.0
0.1666666667 0.1250062557 1.0
0.0 0.1250062557 1.0
0.4166666667 0.3750187671 0.2462299062
0.25 0.3750187671 0.2462299062
0.0833333333 0.3750187671 0.2462299062
0.5 0.3750187671 0.4974866042
0.3333333333 0.3750187671 0.4974866042
0.1666666667 0.3750187671 0.4974866042
0.0 0.3750187671 0.4974866042
0.4166666667 0.3750187671 0.7487433021
0.25 0.3750187671 0.7487433021
0.0833333333 0.3750187671 0.7487433021
0.5 0.3750187671 1.0
0.3333333333 0.3750187671 1.0
0.1666666667 0.3750187671 1.0
0.0 0.3750187671 1.0
0.4166666667 0.6250312784 0.2462299062
0.25 0.6250312784 0.2462299062
0.0833333333 0.6250312784 0.2462299062
0.5 0.6250312784 0.4974866042
0.3333333333 0.6250312784 0.4974866042
0.1666666667 0.6250312784 0.4974866042
0.0 0.6250312784 0.4974866042
0.4166666667 0.6250312784 0.7487433021
0.25 0.6250312784 0.7487433021
0.0833333333 0.6250312784 0.7487433021
0.5 0.6250312784 1.0
0.3333333333 0.6250312784 1.0
0.1666666667 0.6250312784 1.0
0.0 0.6250312784 1.0
0.4166666667 0.8750437898 0.2462299062
0.25 0.8750437898 0.2462299062
0.0833333333 0.8750437898 0.2462299062
0.5 0.8750437898 0.4974866042
0.3333333333 0.8750437898 0.4974866042
0.1666666667 0.8750437898 0.4974866042
0.0 0.8750437898 0.4974866042
0.4166666667 0.8750437898 0.7487433021
0.25 0.8750437898 0.7487433021
0.0833333333 0.8750437898 0.7487433021
0.5 0.8750437898 1.0
0.3333333333 0.8750437898 1.0
0.1666666667 0.8750437898 1.0
0.0 0.8750437898 1.0
0.5833333333 0.1250062557 0.2462299062
0.75 0.1250062557 0.2462299062
0.9166666667 0.1250062557 0.2462299062
0.6666666667 0.1250062557 0.4974866042
0.8333333333 0.1250062557 0.4974866042
0.5833333333 0.1250062557 0.7487433021
0.75 0.1250062557 0.7487433021
0.9166666667 0.1250062557 0.7487433021
0.6666666667 0.1250062557 1.0
0.8333333333 0.1250062557 1.0
0.5833333333 0.3750187671 0.2462299062
0.75 0.3750187671 0.2462299062
0.9166666667 0.3750187671 0.2462299062
0.6666666667 0.3750187671 0.4974866042
0.8333333333 0.3750187671 0.4974866042
0.5833333333 0.3750187671 0.7487433021
0.75 0.3750187671 0.7487433021
0.9166666667 0.3750187671 0.7487433021
0.6666666667 0.3750187671 1.0
0.8333333333 0.3750187671 1.0
0.5833333333 0.6250312784 0.2462299062
0.75 0.6250312784 0.2462299062
0.9166666667 0.6250312784 0.2462299062
0.6666666667 0.6250312784 0.4974866042
0.8333333333 0.6250312784 0.4974866042
0.5833333333 0.6250312784 0.7487433021
0.75 0.6250312784 0.7487433021
0.9166666667 0.6250312784 0.7487433021
0.6666666667 0.6250312784 1.0
0.8333333333 0.6250312784 1.0
0.5833333333 0.8750437898 0.2462299062
0.75 0.8750437898 0.2462299062
0.9166666667 0.8750437898 0.2462299062
0.6666666667 0.8750437898 0.4974866042
0.8333333333 0.8750437898 0.4974866042
0.5833333333 0.8750437898 0.7487433021
0.75 0.8750437898 0.7487433021
0.9166666667 0.8750437898 0.7487433021
0.6666666667 0.8750437898 1.0
0.8333333333 0.8750437898 1.0
0.4583535064 0.1196340033 0.120430207
0.5 0.2498817074 0.0030986803
0.2917225434 0.1184750079 0.1204267982
0.3312600475 0.2498420235 0.0018261977
0.1250450352 0.11915013 0.1204614475
0.1645932578 0.2498568426 0.0012568949
0.0 0.2499624659 0.0
0.3749947317 0.1243198826 0.1206212861
0.3750496046 0.1314562728 0.3716730757
0.4182498458 0.249852996 0.2386324992
0.2083332538 0.1249958771 0.1206018527
0.2083882762 0.1314284071 0.3716920608
0.2521630601 0.2498416666 0.2396203534
0.0416622729 0.1238356983 0.1206258303
0.0416816334 0.1289922433 0.3717756082
0.0849168474 0.2499059146 0.2406608143
0.4583237332 0.1275638961 0.3719398362
0.4583535064 0.1196340033 0.6229436029
0.5 0.2498817074 0.5056120762
0.2916656533 0.1251258774 0.3718614842
0.2917225434 0.1184750079 0.6229401941
0.3312600475 0.2498420235 0.5043395935
0.1249993011 0.1250980192 0.3718604681
0.1250450352 0.11915013 0.6229748434
0.1645932578 0.2498568426 0.5037702908
0.0 0.2499624659 0.5025133959
0.3749947317 0.1243198826 0.6231346819
0.3750496046 0.1314562728 0.8741864715
0.4182498458 0.249852996 0.7411458951
0.2083332538 0.1249958771 0.6231152486
0.2083882762 0.1314284071 0.8742054567
0.2521630601 0.2498416666 0.7421337492
0.0416622729 0.1238356983 0.6231392262
0.0416816334 0.1289922433 0.874289004
0.0849168474 0.2499059146 0.7431742102
0.4583237332 0.1275638961 0.8744532321
0.2916656533 0.1251258774 0.8743748801
0.1249993011 0.1250980192 0.874373864
0.4583535064 0.3803910194 0.120430207
0.2917225434 0.3815500148 0.1204267982
0.1250450352 0.3808748927 0.1204614475
0.3749947317 0.3757051401 0.1206212861
0.3750496046 0.36856875 0.3716730757
0.4150834875 0.4998659985 0.2538109915
0.2083332538 0.3750291457 0.1206018527
0.2083882762 0.3685966157 0.3716920608
0.2478369399 0.4998551303 0.2528029204
0.0416622729 0.3761893245 0.1206258303
0.0416816334 0.3710327794 0.3717756082
0.0817498192 0.4999187858 0.2517826694
0.4583237332 0.3724611267 0.3719398362
0.4583535064 0.3803910194 0.6229436029
0.5 0.4998942188 0.4893611321
0.2916656533 0.3748991454 0.3718614842
0.2917225434 0.3815500148 0.6229401941
0.3354066191 0.4998542087 0.4906216189
0.1249993011 0.3749270036 0.3718604681
0.1250450352 0.3808748927 0.6229748434
0.1687400756 0.4998690549 0.4911909202
0.0 0.4999749772 0.4924598125
0.3749947317 0.3757051401 0.6231346819
0.3750496046 0.36856875 0.8741864715
0.4150834875 0.4998659985 0.7563243873
0.2083332538 0.3750291457 0.6231152486
0.2083882762 0.3685966157 0.8742054567
0.2478369399 0.4998551303 0.7553163162
0.0416622729 0.3761893245 0.6231392262
0.0416816334 0.3710327794 0.874289004
0.0817498192 0.4999187858 0.7542960653
0.4583237332 0.3724611267 0.8744532321
0.5 0.4998942188 0.991874528
0.2916656533 0.3748991454 0.8743748801
0.3354066191 0.4998542087 0.9931350147
0.1249993011 0.3749270036 0.874373864
0.1687400756 0.4998690549 0.993704316
0.0 0.4999749772 0.9949732083
0.4583535064 0.6196590261 0.120430207
0.5 0.7499067302 0.0030986803
0.2917225434 0.6185000307 0.1204267982
0.3312600475 0.7498670463 0.0018261977
0.1250450352 0.6191751528 0.1204614475
0.1645932578 0.7498818654 0.0012568949
0.0 0.7499874886 0.0
0.3749947317 0.6243449054 0.1206212861
0.3750496046 0.6314812956 0.3716730757
0.4182498458 0.7498780188 0.2386324992
0.2083332538 0.6250208999 0.1206018527
0.2083882762 0.6314534299 0.3716920608
0.2521630601 0.7498666894 0.2396203534
0.0416622729 0.623860721 0.1206258303
0.0416816334 0.6290172661 0.3717756082
0.0849168474 0.7499309373 0.2406608143
0.4583237332 0.6275889188 0.3719398362
0.4583535064 0.6196590261 0.6229436029
0.5 0.7499067302 0.5056120762
0.2916656533 0.6251509001 0.3718614842
0.2917225434 0.6185000307 0.6229401941
0.3312600475 0.7498670463 0.5043395935
0.1249993011 0.6251230419 0.3718604681
0.1250450352 0.6191751528 0.6229748434
0.1645932578 0.7498818654 0.5037702908
0.0 0.7499874886 0.5025133959
0.3749947317 0.6243449054 0.6231346819
0.3750496046 0.6314812956 0.8741864715
0.4182498458 0.7498780188 0.7411458951
0.2083332538 0.6250208999 0.6231152486
0.2083882762 0.6314534299 0.8742054567
0.2521630601 0.7498666894 0.7421337492
0.0416622729 0.623860721 0.6231392262
0.0416816334 0.6290172661 0.874289004
0.0849168474 0.7499309373 0.7431742102
0.4583237332 0.6275889188 0.8744532321
0.2916656533 0.6251509001 0.8743748801
0.1249993011 0.6251230419 0.874373864
0.4583535064 0.8804160422 0.120430207
0.2917225434 0.8815750376 0.1204267982
0.1250450352 0.8808999155 0.1204614475
0.3749947317 0.8757301629 0.1206212861
0.3750496046 0.8685937727 0.3716730757
0.4150834875 0.9998910213 0.2538109915
0.2083332538 0.8750541684 0.1206018527
0.2083882762 0.8686216384 0.3716920608
0.2478369399 0.999880153 0.2528029204
0.0416622729 0.8762143472 0.1206258303
0.0416816334 0.8710578022 0.3717756082
0.0817498192 0.9999438086 0.2517826694
0.4583237332 0.8724861495 0.3719398362
0.4583535064 0.8804160422 0.6229436029
0.5 0.9999192415 0.4893611321
0.2916656533 0.8749241682 0.3718614842
0.2917225434 0.8815750376 0.6229401941
0.3354066191 0.9998792314 0.4906216189
0.1249993011 0.8749520264 0.3718604681
0.1250450352 0.8808999155 0.6229748434
0.1687400756 0.9998940777 0.4911909202
0.0 1.0 0.4924598125
0.3749947317 0.8757301629 0.6231346819
0.3750496046 0.8685937727 0.8741864715
0.4150834875 0.9998910213 0.7563243873
0.2083332538 0.8750541684 0.6231152486
0.2083882762 0.8686216384 0.8742054567
0.2478369399 0.999880153 0.7553163162
0.0416622729 0.8762143472 0.6231392262
0.0416816334 0.8710578022 0.874289004
0.0817498192 0.9999438086 0.7542960653
0.4583237332 0.8724861495 0.8744532321
0.5 0.9999192415 0.991874528
0.2916656533 0.8749241682 0.8743748801
0.3354066191 0.9998792314 0.9931350147
0.1249993011 0.8749520264 0.874373864
0.1687400756 0.9998940777 0.993704316
0.0 1.0 0.9949732083
0.5416464936 0.1196340033 0.120430207
0.7082774566 0.1184750079 0.1204267982
0.6687399525 0.2498420235 0.0018261977
0.8749549648 0.11915013 0.1204614475
0.8354067422 0.2498568426 0.0012568949
0.6250052683 0.1243198826 0.1206212861
0.6249503954 0.1314562728 0.3716730757
0.5817501542 0.249852996 0.2386324992
0.7916667462 0.1249958771 0.1206018527
0.7916117238 0.1314284071 0.3716920608
0.7478369399 0.2498416666 0.2396203534
0.9583377271 0.1238356983 0.1206258303
0.9583183666 0.1289922433 0.3717756082
0.9150831526 0.2499059146 0.2406608143
0.5416762668 0.1275638961 0.3719398362
0.5416464936 0.1196340033 0.6229436029
0.7083343467 0.1251258774 0.3718614842
0.7082774566 0.1184750079 0.6229401941
0.6687399525 0.2498420235 0.5043395935
0.8750006989 0.1250980192 0.3718604681
0.8749549648 0.11915013 0.6229748434
0.8354067422 0.2498568426 0.5037702908
0.6250052683 0.1243198826 0.6231346819
0.6249503954 0.1314562728 0.8741864715
0.5817501542 0.249852996 0.7411458951
0.7916667462 0.1249958771 0.6231152486
0.7916117238 0.1314284071 0.8742054567
0.7478369399 0.2498416666 0.7421337492
0.9583377271 0.1238356983 0.6231392262
0.9583183666 0.1289922433 0.874289004
0.9150831526 0.2499059146 0.7431742102
0.5416762668 0.1275638961 0.8744532321
0.7083343467 0.1251258774 0.8743748801
0.8750006989 0.1250980192 0.874373864
0.5416464936 0.3803910194 0.120430207
0.7082774566 0.3815500148 0.1204267982
0.8749549648 0.3808748927 0.1204614475
0.6250052683 0.3757051401 0.1206212861
0.6249503954 0.36856875 0.3716730757
0.5849165125 0.4998659985 0.2538109915
0.7916667462 0.3750291457 0.1206018527
0.7916117238 0.3685966157 0.3716920608
0.7521630601 0.4998551303 0.2528029204
0.9583377271 0.3761893245 0.1206258303
0.9583183666 0.3710327794 0.3717756082
0.9182501808 0.4999187858 0.2517826694
0.5416762668 0.3724611267 0.3719398362
0.5416464936 0.3803910194 0.6229436029
0.7083343467 0.3748991454 0.3718614842
0.7082774566 0.3815500148 0.6229401941
0.6645933809 0.4998542087 0.4906216189
0.8750006989 0.3749270036 0.3718604681
0.8749549648 0.3808748927 0.6229748434
0.8312599244 0.4998690549 0.4911909202
0.6250052683 0.3757051401 0.6231346819
0.6249503954 0.36856875 0.8741864715
0.5849165125 0.4998659985 0.7563243873
0.7916667462 0.3750291457 0.6231152486
0.7916117238 0.3685966157 0.8742054567
0.7521630601 0.4998551303 0.7553163162
0.9583377271 0.3761893245 0.6231392262
0.9583183666 0.3710327794 0.874289004
0.9182501808 0.4999187858 0.7542960653
0.5416762668 0.3724611267 0.8744532321
0.7083343467 0.3748991454 0.8743748801
0.6645933809 0.4998542087 0.9931350147
0.8750006989 0.3749270036 0.874373864
0.8312599244 0.4998690549 0.993704316
0.5416464936 0.6196590261 0.120430207
0.7082774566 0.6185000307 0.1204267982
0.6687399525 0.7498670463 0.0018261977
0.8749549648 0.6191751528 0.1204614475
0.8354067422 0.7498818654 0.0012568949
0.6250052683 0.6243449054 0.1206212861
0.6249503954 0.6314812956 0.3716730757
0.5817501542 0.7498780188 0.2386324992
0.7916667462 0.6250208999 0.1206018527
0.7916117238 0.6314534299 0.3716920608
0.7478369399 0.7498666894 0.2396203534
0.9583377271 0.623860721 0.1206258303
0.9583183666 0.6290172661 0.3717756082
0.9150831526 0.7499309373 0.2406608143
0.5416762668 0.6275889188 0.3719398362
0.5416464936 0.6196590261 0.6229436029
0.7083343467 0.6251509001 0.3718614842
0.7082774566 0.6185000307 0.6229401941
0.6687399525 0.7498670463 0.5043395935
0.8750006989 0.6251230419 0.3718604681
0.8749549648 0.6191751528 0.6229748434
0.8354067422 0.7498818654 0.5037702908
0.6250052683 0.6243449054 0.6231346819
0.6249503954 0.6314812956 0.8741864715
0.5817501542 0.7498780188 0.7411458951
0.7916667462 0.6250208999 0.6231152486
0.7916117238 0.6314534299 0.8742054567
0.7478369399 0.7498666894 0.7421337492
0.9583377271 0.623860721 0.6231392262
0.9583183666 0.6290172661 0.874289004
0.9150831526 0.7499309373 0.7431742102
0.5416762668 0.6275889188 0.8744532321
0.7083343467 0.6251509001 0.8743748801
0.8750006989 0.6251230419 0.874373864
0.5416464936 0.8804160422 0.120430207
0.7082774566 0.8815750376 0.1204267982
0.8749549648 0.8808999155 0.1204614475
0.6250052683 0.8757301629 0.1206212861
0.6249503954 0.8685937727 0.3716730757
0.5849165125 0.9998910213 0.2538109915
0.7916667462 0.8750541684 0.1206018527
0.7916117238 0.8686216384 0.3716920608
0.7521630601 0.999880153 0.2528029204
0.9583377271 0.8762143472 0.1206258303
0.9583183666 0.8710578022 0.3717756082
0.9182501808 0.9999438086 0.2517826694
0.5416762668 0.8724861495 0.3719398362
0.5416464936 0.8804160422 0.6229436029
0.7083343467 0.8749241682 0.3718614842
0.7082774566 0.8815750376 0.6229401941
0.6645933809 0.9998792314 0.4906216189
0.8750006989 0.8749520264 0.3718604681
0.8749549648 0.8808999155 0.6229748434
0.8312599244 0.9998940777 0.4911909202
0.6250052683 0.8757301629 0.6231346819
0.6249503954 0.8685937727 0.8741864715
0.5849165125 0.9998910213 0.7563243873
0.7916667462 0.8750541684 0.6231152486
0.7916117238 0.8686216384 0.8742054567
0.7521630601 0.999880153 0.7553163162
0.9583377271 0.8762143472 0.6231392262
0.9583183666 0.8710578022 0.874289004
0.9182501808 0.9999438086 0.7542960653
0.5416762668 0.8724861495 0.8744532321
0.7083343467 0.8749241682 0.8743748801
0.6645933809 0.9998792314 0.9931350147
0.8750006989 0.8749520264 0.874373864
0.8312599244 0.9998940777 0.993704316
