POSCAR file written by Ovito 3.15.2
1
33.1350237664 0.0 0.0
0.0 7.8092183282 0.0
0.0 0.0 22.0347725866
Sr Ti O 
96 96 288 
Direct
0.5 0.0 0.1228062923
0.3333333333 0.0 0.1228062923
0.1666666667 0.0 0.1228062923
0.0 0.0 0.1228062923
0.4166666667 0.0 0.2481196791
0.25 0.0 0.2481196791
0.0833333333 0.0 0.2481196791
0.5 0.0 0.3734330659
0.3333333333 0.0 0.3734330659
0.1666666667 0.0 0.3734330659
0.0 0.0 0.3734330659
0.4166666667 0.0 0.4987464527
0.25 0.0 0.4987464527
0.0833333333 0.0 0.4987464527
0.5 0.0 0.6240598396
0.3333333333 0.0 0.6240598396
0.1666666667 0.0 0.6240598396
0.0 0.0 0.6240598396
0.4166666667 0.0 0.7493732264
0.25 0.0 0.7493732264
0.0833333333 0.0 0.7493732264
0.5 0.0 0.8746866132
0.3333333333 0.0 0.8746866132
0.1666666667 0.0 0.8746866132
0.0 0.0 0.8746866132
0.4166666667 0.0 1.0
0.25 0.0 1.0
0.0833333333 0.0 1.0
0.5 0.500050048 0.1228062923
0.3333333333 0.500050048 0.1228062923
0.1666666667 0.500050048 0.1228062923
0.0 0.500050048 0.1228062923
0.4166666667 0.500050048 0.2481196791
0.25 0.500050048 0.2481196791
0.0833333333 0.500050048 0.2481196791
0.5 0.500050048 0.3734330659
0.3333333333 0.500050048 0.3734330659
0.1666666667 0.500050048 0.3734330659
0.0 0.500050048 0.3734330659
0.4166666667 0.500050048 0.4987464527
0.25 0.500050048 0.4987464527
0.0833333333 0.500050048 0.4987464527
0.5 0.500050048 0.6240598396
0.3333333333 0.500050048 0.6240598396
0.1666666667 0.500050048 0.6240598396
0.0 0.500050048 0.6240598396
0.4166666667 0.500050048 0.7493732264
0.25 0.500050048 0.7493732264
0.0833333333 0.500050048 0.7493732264
0.5 0.500050048 0.8746866132
0.3333333333 0.500050048 0.8746866132
0.1666666667 0.500050048 0.8746866132
0.0 0.500050048 0.8746866132
0.4166666667 0.500050048 1.0
0.25 0.500050048 1.0
0.0833333333 0.500050048 1.0
0.6666666667 0.0 0.1228062923
0.8333333333 0.0 0.1228062923
0.5833333333 0.0 0.2481196791
0.75 0.0 0.2481196791
0.9166666667 0.0 0.2481196791
0.6666666667 0.0 0.3734330659
0.8333333333 0.0 0.3734330659
0.5833333333 0.0 0.4987464527
0.75 0.0 0.4987464527
0.9166666667 0.0 0.4987464527
0.6666666667 0.0 0.6240598396
0.8333333333 0.0 0.6240598396
0.5833333333 0.0 0.7493732264
0.75 0.0 0.7493732264
0.9166666667 0.0 0.7493732264
0.6666666667 0.0 0.8746866132
0.8333333333 0.0 0.8746866132
0.5833333333 0.0 1.0
0.75 0.0 1.0
0.9166666667 0.0 1.0
0.6666666667 0.500050048 0.1228062923
0.8333333333 0.500050048 0.1228062923
0.5833333333 0.500050048 0.2481196791
0.75 0.500050048 0.2481196791
0.9166666667 0.500050048 0.2481196791
0.6666666667 0.500050048 0.3734330659
0.8333333333 0.500050048 0.3734330659
0.5833333333 0.500050048 0.4987464527
0.75 0.500050048 0.4987464527
0.9166666667 0.500050048 0.4987464527
0.6666666667 0.500050048 0.6240598396
0.8333333333 0.500050048 0.6240598396
0.5833333333 0.500050048 0.7493732264
0.75 0.500050048 0.7493732264
0.9166666667 0.500050048 0.7493732264
0.6666666667 0.500050048 0.8746866132
0.8333333333 0.500050048 0.8746866132
0.5833333333 0.500050048 1.0
0.75 0.500050048 1.0
0.9166666667 0.500050048 1.0
0.4166666667 0.250025024 0.1228062923
0.25 0.250025024 0.1228062923
0.0833333333 0.250025024 0.1228062923
0.5 0.250025024 0.2481196791
0.3333333333 0.250025024 0.2481196791
0.1666666667 0.250025024 0.2481196791
0.0 0.250025024 0.2481196791
0.4166666667 0.250025024 0.3734330659
0.25 0.250025024 0.3734330659
0.0833333333 0.250025024 0.3734330659
0.5 0.250025024 0.4987464527
0.3333333333 0.250025024 0.4987464527
0.1666666667 0.250025024 0.4987464527
0.0 0.250025024 0.4987464527
0.4166666667 0.250025024 0.6240598396
0.25 0.250025024 0.6240598396
0.0833333333 0.250025024 0.6240598396
0.5 0.250025024 0.7493732264
0.3333333333 0.250025024 0.7493732264
0.1666666667 0.250025024 0.7493732264
0.0 0.250025024 0.7493732264
0.4166666667 0.250025024 0.8746866132
0.25 0.250025024 0.8746866132
0.0833333333 0.250025024 0.8746866132
0.5 0.250025024 1.0
0.3333333333 0.250025024 1.0
0.1666666667 0.250025024 1.0
0.0 0.250025024 1.0
0.4166666667 0.750075072 0.1228062923
0.25 0.750075072 0.1228062923
0.0833333333 0.750075072 0.1228062923
0.5 0.750075072 0.2481196791
0.3333333333 0.750075072 0.2481196791
0.1666666667 0.750075072 0.2481196791
0.0 0.750075072 0.2481196791
0.4166666667 0.750075072 0.3734330659
0.25 0.750075072 0.3734330659
0.0833333333 0.750075072 0.3734330659
0.5 0.750075072 0.4987464527
0.3333333333 0.750075072 0.4987464527
0.1666666667 0.750075072 0.4987464527
0.0 0.750075072 0.4987464527
0.4166666667 0.750075072 0.6240598396
0.25 0.750075072 0.6240598396
0.0833333333 0.750075072 0.6240598396
0.5 0.750075072 0.7493732264
0.3333333333 0.750075072 0.7493732264
0.1666666667 0.750075072 0.7493732264
0.0 0.750075072 0.7493732264
0.4166666667 0.750075072 0.8746866132
0.25 0.750075072 0.8746866132
0.0833333333 0.750075072 0.8746866132
0.5 0.750075072 1.0
0.3333333333 0.750075072 1.0
0.1666666667 0.750075072 1.0
0.0 0.750075072 1.0
0.5833333333 0.250025024 0.1228062923
0.75 0.250025024 0.1228062923
0.9166666667 0.250025024 0.1228062923
0.6666666667 0.250025024 0.2481196791
0.8333333333 0.250025024 0.2481196791
0.5833333333 0.250025024 0.3734330659
0.75 0.250025024 0.3734330659
0.9166666667 0.250025024 0.3734330659
0.6666666667 0.250025024 0.4987464527
0.8333333333 0.250025024 0.4987464527
0.5833333333 0.250025024 0.6240598396
0.75 0.250025024 0.6240598396
0.9166666667 0.250025024 0.6240598396
0.6666666667 0.250025024 0.7493732264
0.8333333333 0.250025024 0.7493732264
0.5833333333 0.250025024 0.8746866132
0.75 0.250025024 0.8746866132
0.9166666667 0.250025024 0.8746866132
0.6666666667 0.250025024 1.0
0.8333333333 0.250025024 1.0
0.5833333333 0.750075072 0.1228062923
0.75 0.750075072 0.1228062923
0.9166666667 0.750075072 0.1228062923
0.6666666667 0.750075072 0.2481196791
0.8333333333 0.750075072 0.2481196791
0.5833333333 0.750075072 0.3734330659
0.75 0.750075072 0.3734330659
0.9166666667 0.750075072 0.3734330659
0.6666666667 0.750075072 0.4987464527
0.8333333333 0.750075072 0.4987464527
0.5833333333 0.750075072 0.6240598396
0.75 0.750075072 0.6240598396
0.9166666667 0.750075072 0.6240598396
0.6666666667 0.750075072 0.7493732264
0.8333333333 0.750075072 0.7493732264
0.5833333333 0.750075072 0.8746866132
0.75 0.750075072 0.8746866132
0.9166666667 0.750075072 0.8746866132
0.6666666667 0.750075072 1.0
0.8333333333 0.750075072 1.0
0.4583535064 0.2392799816 0.0600641386
0.5 0.499788427 0.0015454558
0.2917225434 0.2369618748 0.0600624384
0.3312600475 0.4997090552 9.1080961789e-04
0.1250450352 0.2383121865 0.0600797197
0.1645932578 0.4997386949 6.2687189739e-04
0.0 0.499949952 0.0
0.3749947317 0.2486522092 0.0601594385
0.3750496046 0.2629257038 0.1853706281
0.4182498458 0.4997310014 0.1190171125
0.2083332538 0.2500042658 0.0601497462
0.2083882762 0.2628699697 0.1853800968
0.2521630601 0.4997083414 0.1195098012
0.0416622729 0.247683792 0.060161705
0.0416816334 0.2579973983 0.1854217658
0.0849168474 0.4998368437 0.1200287275
0.4583237332 0.2551405608 0.185503674
0.4583535064 0.2392799816 0.3106909122
0.5 0.499788427 0.2521722295
0.2916656533 0.2502642793 0.1854645962
0.2917225434 0.2369618748 0.3106892121
0.3312600475 0.4997090552 0.2515375832
0.1249993011 0.2502085601 0.1854640894
0.1250450352 0.2383121865 0.3107064933
0.1645932578 0.4997386949 0.2512536455
0.0 0.499949952 0.2506267736
0.3749947317 0.2486522092 0.3107862122
0.3750496046 0.2629257038 0.4359974017
0.4182498458 0.4997310014 0.3696438861
0.2083332538 0.2500042658 0.3107765199
0.2083882762 0.2628699697 0.4360068705
0.2521630601 0.4997083414 0.3701365749
0.0416622729 0.247683792 0.3107884786
0.0416816334 0.2579973983 0.4360485394
0.0849168474 0.4998368437 0.3706555011
0.4583237332 0.2551405608 0.4361304476
0.4583535064 0.2392799816 0.5613176858
0.5 0.499788427 0.5027990031
0.2916656533 0.2502642793 0.4360913698
0.2917225434 0.2369618748 0.5613159857
0.3312600475 0.4997090552 0.5021643569
0.1249993011 0.2502085601 0.436090863
0.1250450352 0.2383121865 0.5613332669
0.1645932578 0.4997386949 0.5018804192
0.0 0.499949952 0.5012535473
0.3749947317 0.2486522092 0.5614129858
0.3750496046 0.2629257038 0.6866241753
0.4182498458 0.4997310014 0.6202706597
0.2083332538 0.2500042658 0.5614032935
0.2083882762 0.2628699697 0.6866336441
0.2521630601 0.4997083414 0.6207633485
0.0416622729 0.247683792 0.5614152522
0.0416816334 0.2579973983 0.686675313
0.0849168474 0.4998368437 0.6212822747
0.4583237332 0.2551405608 0.6867572212
0.4583535064 0.2392799816 0.8119444595
0.5 0.499788427 0.7534257767
0.2916656533 0.2502642793 0.6867181434
0.2917225434 0.2369618748 0.8119427593
0.3312600475 0.4997090552 0.7527911305
0.1249993011 0.2502085601 0.6867176366
0.1250450352 0.2383121865 0.8119600405
0.1645932578 0.4997386949 0.7525071928
0.0 0.499949952 0.7518803209
0.3749947317 0.2486522092 0.8120397594
0.3750496046 0.2629257038 0.937250949
0.4182498458 0.4997310014 0.8708974334
0.2083332538 0.2500042658 0.8120300671
0.2083882762 0.2628699697 0.9372604177
0.2521630601 0.4997083414 0.8713901221
0.0416622729 0.247683792 0.8120420259
0.0416816334 0.2579973983 0.9373020867
0.0849168474 0.4998368437 0.8719090484
0.4583237332 0.2551405608 0.9373839949
0.2916656533 0.2502642793 0.9373449171
0.1249993011 0.2502085601 0.9373444103
0.4583535064 0.7608201145 0.0600641386
0.2917225434 0.7631382213 0.0600624384
0.1250450352 0.7617879096 0.0600797197
0.3749947317 0.7514478868 0.0601594385
0.3750496046 0.7371743922 0.1853706281
0.4150834875 0.9997820316 0.1265873317
0.2083332538 0.7500958302 0.0601497462
0.2083882762 0.7372301264 0.1853800968
0.2478369399 0.999760294 0.1260845598
0.0416622729 0.752416304 0.060161705
0.0416816334 0.7421026978 0.1854217658
0.0817498192 0.9998876115 0.1255757132
0.4583237332 0.7449595353 0.185503674
0.4583535064 0.7608201145 0.3106909122
0.5 0.999838475 0.2440671288
0.2916656533 0.7498358167 0.1854645962
0.2917225434 0.7631382213 0.3106892121
0.3354066191 0.9997584508 0.2446957921
0.1249993011 0.7498915359 0.1854640894
0.1250450352 0.7617879096 0.3107064933
0.1687400756 0.9997881447 0.2449797291
0.0 1.0 0.2456125846
0.3749947317 0.7514478868 0.3107862122
0.3750496046 0.7371743922 0.4359974017
0.4150834875 0.9997820316 0.3772141053
0.2083332538 0.7500958302 0.3107765199
0.2083882762 0.7372301264 0.4360068705
0.2478369399 0.999760294 0.3767113334
0.0416622729 0.752416304 0.3107884786
0.0416816334 0.7421026978 0.4360485394
0.0817498192 0.9998876115 0.3762024869
0.4583237332 0.7449595353 0.4361304476
0.4583535064 0.7608201145 0.5613176858
0.5 0.999838475 0.4946939024
0.2916656533 0.7498358167 0.4360913698
0.2917225434 0.7631382213 0.5613159857
0.3354066191 0.9997584508 0.4953225657
0.1249993011 0.7498915359 0.436090863
0.1250450352 0.7617879096 0.5613332669
0.1687400756 0.9997881447 0.4956065027
0.0 1.0 0.4962393582
0.3749947317 0.7514478868 0.5614129858
0.3750496046 0.7371743922 0.6866241753
0.4150834875 0.9997820316 0.6278408789
0.2083332538 0.7500958302 0.5614032935
0.2083882762 0.7372301264 0.6866336441
0.2478369399 0.999760294 0.627338107
0.0416622729 0.752416304 0.5614152522
0.0416816334 0.7421026978 0.686675313
0.0817498192 0.9998876115 0.6268292605
0.4583237332 0.7449595353 0.6867572212
0.4583535064 0.7608201145 0.8119444595
0.5 0.999838475 0.745320676
0.2916656533 0.7498358167 0.6867181434
0.2917225434 0.7631382213 0.8119427593
0.3354066191 0.9997584508 0.7459493393
0.1249993011 0.7498915359 0.6867176366
0.1250450352 0.7617879096 0.8119600405
0.1687400756 0.9997881447 0.7462332763
0.0 1.0 0.7468661318
0.3749947317 0.7514478868 0.8120397594
0.3750496046 0.7371743922 0.937250949
0.4150834875 0.9997820316 0.8784676526
0.2083332538 0.7500958302 0.8120300671
0.2083882762 0.7372301264 0.9372604177
0.2478369399 0.999760294 0.8779648807
0.0416622729 0.752416304 0.8120420259
0.0416816334 0.7421026978 0.9373020867
0.0817498192 0.9998876115 0.8774560341
0.4583237332 0.7449595353 0.9373839949
0.5 0.999838475 0.9959474496
0.2916656533 0.7498358167 0.9373449171
0.3354066191 0.9997584508 0.9965761129
0.1249993011 0.7498915359 0.9373444103
0.1687400756 0.9997881447 0.99686005
0.0 1.0 0.9974929055
0.5416464936 0.2392799816 0.0600641386
0.7082774566 0.2369618748 0.0600624384
0.6687399525 0.4997090552 9.1080961789e-04
0.8749549648 0.2383121865 0.0600797197
0.8354067422 0.4997386949 6.2687189739e-04
0.6250052683 0.2486522092 0.0601594385
0.6249503954 0.2629257038 0.1853706281
0.5817501542 0.4997310014 0.1190171125
0.7916667462 0.2500042658 0.0601497462
0.7916117238 0.2628699697 0.1853800968
0.7478369399 0.4997083414 0.1195098012
0.9583377271 0.247683792 0.060161705
0.9583183666 0.2579973983 0.1854217658
0.9150831526 0.4998368437 0.1200287275
0.5416762668 0.2551405608 0.185503674
0.5416464936 0.2392799816 0.3106909122
0.7083343467 0.2502642793 0.1854645962
0.7082774566 0.2369618748 0.3106892121
0.6687399525 0.4997090552 0.2515375832
0.8750006989 0.2502085601 0.1854640894
0.8749549648 0.2383121865 0.3107064933
0.8354067422 0.4997386949 0.2512536455
0.6250052683 0.2486522092 0.3107862122
0.6249503954 0.2629257038 0.4359974017
0.5817501542 0.4997310014 0.3696438861
0.7916667462 0.2500042658 0.3107765199
0.7916117238 0.2628699697 0.4360068705
0.7478369399 0.4997083414 0.3701365749
0.9583377271 0.247683792 0.3107884786
0.9583183666 0.2579973983 0.4360485394
0.9150831526 0.4998368437 0.3706555011
0.5416762668 0.2551405608 0.4361304476
0.5416464936 0.2392799816 0.5613176858
0.7083343467 0.2502642793 0.4360913698
0.7082774566 0.2369618748 0.5613159857
0.6687399525 0.4997090552 0.5021643569
0.8750006989 0.2502085601 0.436090863
0.8749549648 0.2383121865 0.5613332669
0.8354067422 0.4997386949 0.5018804192
0.6250052683 0.2486522092 0.5614129858
0.6249503954 0.2629257038 0.6866241753
0.5817501542 0.4997310014 0.6202706597
0.7916667462 0.2500042658 0.5614032935
0.7916117238 0.2628699697 0.6866336441
0.7478369399 0.4997083414 0.6207633485
0.9583377271 0.247683792 0.5614152522
0.9583183666 0.2579973983 0.686675313
0.9150831526 0.4998368437 0.6212822747
0.5416762668 0.2551405608 0.6867572212
0.5416464936 0.2392799816 0.8119444595
0.7083343467 0.2502642793 0.6867181434
0.7082774566 0.2369618748 0.8119427593
0.6687399525 0.4997090552 0.7527911305
0.8750006989 0.2502085601 0.6867176366
0.8749549648 0.2383121865 0.8119600405
0.8354067422 0.4997386949 0.7525071928
0.6250052683 0.2486522092 0.8120397594
0.6249503954 0.2629257038 0.937250949
0.5817501542 0.4997310014 0.8708974334
0.7916667462 0.2500042658 0.8120300671
0.7916117238 0.2628699697 0.9372604177
0.7478369399 0.4997083414 0.8713901221
0.9583377271 0.247683792 0.8120420259
0.9583183666 0.2579973983 0.9373020867
0.9150831526 0.4998368437 0.8719090484
0.5416762668 0.2551405608 0.9373839949
0.7083343467 0.2502642793 0.9373449171
0.8750006989 0.2502085601 0.9373444103
0.5416464936 0.7608201145 0.0600641386
0.7082774566 0.7631382213 0.0600624384
0.8749549648 0.7617879096 0.0600797197
0.6250052683 0.7514478868 0.0601594385
0.6249503954 0.7371743922 0.1853706281
0.5849165125 0.9997820316 0.1265873317
0.7916667462 0.7500958302 0.0601497462
0.7916117238 0.7372301264 0.1853800968
0.7521630601 0.999760294 0.1260845598
0.9583377271 0.752416304 0.060161705
0.9583183666 0.7421026978 0.1854217658
0.9182501808 0.9998876115 0.1255757132
0.5416762668 0.7449595353 0.185503674
0.5416464936 0.7608201145 0.3106909122
0.7083343467 0.7498358167 0.1854645962
0.7082774566 0.7631382213 0.3106892121
0.6645933809 0.9997584508 0.2446957921
0.8750006989 0.7498915359 0.1854640894
0.8749549648 0.7617879096 0.3107064933
0.8312599244 0.9997881447 0.2449797291
0.6250052683 0.7514478868 0.3107862122
0.6249503954 0.7371743922 0.4359974017
0.5849165125 0.9997820316 0.3772141053
0.7916667462 0.7500958302 0.3107765199
0.7916117238 0.7372301264 0.4360068705
0.7521630601 0.999760294 0.3767113334
0.9583377271 0.752416304 0.3107884786
0.9583183666 0.7421026978 0.4360485394
0.9182501808 0.9998876115 0.3762024869
0.5416762668 0.7449595353 0.4361304476
0.5416464936 0.7608201145 0.5613176858
0.7083343467 0.7498358167 0.4360913698
0.7082774566 0.7631382213 0.5613159857
0.6645933809 0.9997584508 0.4953225657
0.8750006989 0.7498915359 0.436090863
0.8749549648 0.7617879096 0.5613332669
0.8312599244 0.9997881447 0.4956065027
0.6250052683 0.7514478868 0.5614129858
0.6249503954 0.7371743922 0.6866241753
0.5849165125 0.9997820316 0.6278408789
0.7916667462 0.7500958302 0.5614032935
0.7916117238 0.7372301264 0.6866336441
0.7521630601 0.999760294 0.627338107
0.9583377271 0.752416304 0.5614152522
0.9583183666 0.7421026978 0.686675313
0.9182501808 0.9998876115 0.6268292605
0.5416762668 0.7449595353 0.6867572212
0.5416464936 0.7608201145 0.8119444595
0.7083343467 0.7498358167 0.6867181434
0.7082774566 0.7631382213 0.8119427593
0.6645933809 0.9997584508 0.7459493393
0.8750006989 0.7498915359 0.6867176366
0.8749549648 0.7617879096 0.8119600405
0.8312599244 0.9997881447 0.7462332763
0.6250052683 0.7514478868 0.8120397594
0.6249503954 0.7371743922 0.937250949
0.5849165125 0.9997820316 0.8784676526
0.7916667462 0.7500958302 0.8120300671
0.7916117238 0.7372301264 0.9372604177
0.7521630601 0.999760294 0.8779648807
0.9583377271 0.752416304 0.8120420259
0.9583183666 0.7421026978 0.9373020867
0.9182501808 0.9998876115 0.8774560341
0.5416762668 0.7449595353 0.9373839949
0.7083343467 0.7498358167 0.9373449171
0.6645933809 0.9997584508 0.9965761129
0.8750006989 0.7498915359 0.9373444103
0.8312599244 0.9997881447 0.99686005
