Sr4 Ti4 O12
1.0
   5.5315920250007844    0.0000000000000000    0.0000000000000003
  -0.0000000000000003    5.5315920250007844    0.0000000000000003
   0.0000000000000000    0.0000000000000000    7.8294402200015565
Sr Ti O
4 4 12
direct
   0.0000000000000000    0.5000000000000000    0.2500000000000000 Sr2+
   0.5000000000000000    0.0000000000000000    0.2500000000000000 Sr2+
   0.5000000000000000    0.0000000000000000    0.7500000000000000 Sr2+
   0.0000000000000000    0.5000000000000000    0.7500000000000000 Sr2+
   0.0000000000000000    0.0000000000000000    0.0000000000000000 Ti4+
   0.0000000000000000    0.0000000000000000    0.5000000000000000 Ti4+
   0.5000000000000000    0.5000000000000000    0.5000000000000000 Ti4+
   0.5000000000000000    0.5000000000000000    0.0000000000000000 Ti4+
   0.7410510150000000    0.2410510150000000    0.0000000000000000 O2-
   0.7589489849999991    0.7410510150000000    0.0000000000000000 O2-
   0.7410510150000000    0.7589489849999991    0.5000000000000000 O2-
   0.5000000000000000    0.5000000000000000    0.2500000000000000 O2-
   0.7589489849999991    0.2589489849999990    0.5000000000000000 O2-
   0.0000000000000000    0.0000000000000000    0.2500000000000000 O2-
   0.2410510150000000    0.7410510150000000    0.5000000000000000 O2-
   0.2589489849999990    0.2410510150000000    0.5000000000000000 O2-
   0.2410510150000000    0.2589489849999990    0.0000000000000000 O2-
   0.0000000000000000    0.0000000000000000    0.7500000000000000 O2-
   0.2589489849999990    0.7589489849999991    0.0000000000000000 O2-
   0.5000000000000000    0.5000000000000000    0.7500000000000000 O2-
